Welcome to the CBC MILP Solver 
Version: Trunk
Build Date: Apr 16 2020 

Starting solution of the Linear programming relaxation problem using Primal Simplex

Using Python-MIP package version 1.8.1
Machines:  4 Jobs:  4
Order: 
Job  0 : machine 0 ( 10 ) machine 3 ( 1 ) machine 2 ( 6 ) machine 1 ( 7 ) 
Job  1 : machine 0 ( 1 ) machine 3 ( 7 ) machine 1 ( 5 ) machine 2 ( 8 ) 
Job  2 : machine 3 ( 9 ) machine 2 ( 3 ) machine 1 ( 7 ) machine 0 ( 1 ) 
Job  3 : machine 1 ( 7 ) machine 3 ( 3 ) machine 0 ( 9 ) machine 2 ( 10 ) 
K:  44
Job  0 , e: machine  0 ( 0 ) machine  1 ( 17 ) machine  2 ( 11 ) machine  3 ( 10 ) 
Job  1 , e: machine  0 ( 0 ) machine  1 ( 8 ) machine  2 ( 13 ) machine  3 ( 1 ) 
Job  2 , e: machine  0 ( 19 ) machine  1 ( 12 ) machine  2 ( 9 ) machine  3 ( 0 ) 
Job  3 , e: machine  0 ( 10 ) machine  1 ( 0 ) machine  2 ( 19 ) machine  3 ( 7 ) 
Job  0 , f: machine  0 ( 14 ) machine  1 ( 0 ) machine  2 ( 7 ) machine  3 ( 13 ) 
Job  1 , f: machine  0 ( 20 ) machine  1 ( 8 ) machine  2 ( 0 ) machine  3 ( 13 ) 
Job  2 , f: machine  0 ( 0 ) machine  1 ( 1 ) machine  2 ( 8 ) machine  3 ( 11 ) 
Job  3 , f: machine  0 ( 10 ) machine  1 ( 22 ) machine  2 ( 0 ) machine  3 ( 19 ) 
EST and LST:
Job: 0 Machine: 0 EST: 0 LST: 20
Job: 0 Machine: 1 EST: 17 LST: 37
Job: 0 Machine: 2 EST: 11 LST: 31
Job: 0 Machine: 3 EST: 10 LST: 30
Job: 1 Machine: 0 EST: 0 LST: 23
Job: 1 Machine: 1 EST: 8 LST: 31
Job: 1 Machine: 2 EST: 13 LST: 36
Job: 1 Machine: 3 EST: 1 LST: 24
Job: 2 Machine: 0 EST: 19 LST: 43
Job: 2 Machine: 1 EST: 12 LST: 36
Job: 2 Machine: 2 EST: 9 LST: 33
Job: 2 Machine: 3 EST: 0 LST: 24
Job: 3 Machine: 0 EST: 10 LST: 25
Job: 3 Machine: 1 EST: 0 LST: 15
Job: 3 Machine: 2 EST: 19 LST: 34
Job: 3 Machine: 3 EST: 7 LST: 22
Order:
Job: 0 Machine: 0 = 0 
Job: 0 Machine: 1 = 3 
Job: 0 Machine: 2 = 2 
Job: 0 Machine: 3 = 1 
Job: 1 Machine: 0 = 0 
Job: 1 Machine: 1 = 2 
Job: 1 Machine: 2 = 3 
Job: 1 Machine: 3 = 1 
Job: 2 Machine: 0 = 3 
Job: 2 Machine: 1 = 2 
Job: 2 Machine: 2 = 1 
Job: 2 Machine: 3 = 0 
Job: 3 Machine: 0 = 2 
Job: 3 Machine: 1 = 0 
Job: 3 Machine: 2 = 3 
Job: 3 Machine: 3 = 1 
Distances:
Job 0, Machine 0 -> Machine 3: distance 10
Job 0, Machine 0 -> Machine 2: distance 11
Job 0, Machine 0 -> Machine 1: distance 17
Job 0, Machine 3 -> Machine 2: distance 1
Job 0, Machine 3 -> Machine 1: distance 7
Job 0, Machine 2 -> Machine 1: distance 6
Job 1, Machine 0 -> Machine 3: distance 1
Job 1, Machine 0 -> Machine 1: distance 8
Job 1, Machine 0 -> Machine 2: distance 13
Job 1, Machine 3 -> Machine 1: distance 7
Job 1, Machine 3 -> Machine 2: distance 12
Job 1, Machine 1 -> Machine 2: distance 5
Job 2, Machine 3 -> Machine 2: distance 9
Job 2, Machine 3 -> Machine 1: distance 12
Job 2, Machine 3 -> Machine 0: distance 19
Job 2, Machine 2 -> Machine 1: distance 3
Job 2, Machine 2 -> Machine 0: distance 10
Job 2, Machine 1 -> Machine 0: distance 7
Job 3, Machine 1 -> Machine 3: distance 7
Job 3, Machine 1 -> Machine 0: distance 10
Job 3, Machine 1 -> Machine 2: distance 19
Job 3, Machine 3 -> Machine 0: distance 3
Job 3, Machine 3 -> Machine 2: distance 12
Job 3, Machine 0 -> Machine 2: distance 9
McCormic linearization
19.0 13.0 7
14.0 13.0 7
19.0 19.0 10
10.0 7.0 7
7.0 1.0 9
[(0, 1), (1, 2), (3, 2), (0, 0), (1, 3), (2, 1), (1, 0), (0, 3)]
obj:  0.6000000000000001
solutions:  1
+ x(0,0) + 0.1x(1,0) 
C:  28.999999999999996
x(0,0) = 0.20	 x(0,1) = 19.00	 x(0,2) = 13.00	 x(0,3) = 10.20	 
x(1,0) = 8.00	 x(1,1) = 16.00	 x(1,2) = 21.00	 x(1,3) = 9.00	 
x(2,0) = 20.20	 x(2,1) = 13.20	 x(2,2) = 10.20	 x(2,3) = 1.20	 
x(3,0) = 10.00	 x(3,1) = 0.00	 x(3,2) = 19.00	 x(3,3) = 7.00	 
y(0,1,0) = 0.37	 y(1,0,0) = 0.63	 
y(0,2,0) = 0.48	 y(2,0,0) = 0.52	 
y(0,3,0) = 0.99	 y(3,0,0) = 0.01	 
y(1,2,0) = 0.30	 y(2,1,0) = 0.70	 
y(1,3,0) = 0.96	 y(3,1,0) = 0.04	 
y(2,3,0) = 0.00	 y(3,2,0) = 1.00	 
y(0,1,1) = 0.48	 y(1,0,1) = 0.52	 
y(0,2,1) = 0.05	 y(2,0,1) = 0.95	 
y(0,3,1) = 0.00	 y(3,0,1) = 1.00	 
y(1,2,1) = 0.12	 y(2,1,1) = 0.88	 
y(1,3,1) = 0.38	 y(3,1,1) = 0.62	 
y(2,3,1) = 0.00	 y(3,2,1) = 1.00	 
y(0,1,2) = 0.48	 y(1,0,2) = 0.52	 
y(0,2,2) = 0.44	 y(2,0,2) = 0.56	 
y(0,3,2) = 1.00	 y(3,0,2) = 0.00	 
y(1,2,2) = 0.00	 y(2,1,2) = 1.00	 
y(1,3,2) = 0.26	 y(3,1,2) = 0.74	 
y(2,3,2) = 0.74	 y(3,2,2) = 0.26	 
y(0,1,3) = 0.28	 y(1,0,3) = 0.72	 
y(0,2,3) = 0.00	 y(2,0,3) = 1.00	 
y(0,3,3) = 0.01	 y(3,0,3) = 0.99	 
y(1,2,3) = 0.04	 y(2,1,3) = 0.96	 
y(1,3,3) = 0.04	 y(3,1,3) = 0.96	 
y(2,3,3) = 0.35	 y(3,2,3) = 0.65	 
19.0 15.999999999999996 5
19.0 13.200000000000001 7
15.999999999999996 13.200000000000001 7
12.999999999999998 10.199999999999998 3
21.0 18.999999999999996 10
10.200000000000001 8.999999999999996 7
8.999999999999996 1.1999999999999988 9
obj:  0.9174311926605507
solutions:  1
+ 0.09174311926605454x(0,0) + 0.08256880733944959x(3,0) + 0.009174311926605517x(1,0) 
[(0, 1), (0, 0), (3, 0), (0, 2), (2, 1), (2, 2), (1, 0), (1, 1)]
cliques:  1 mip: 72
C:  29.699716713880658
x(0,0) = 5.70	 x(0,1) = 22.70	 x(0,2) = 16.70	 x(0,3) = 15.70	 
x(1,0) = -0.00	 x(1,1) = 8.00	 x(1,2) = 13.00	 x(1,3) = 1.00	 
x(2,0) = 22.70	 x(2,1) = 15.70	 x(2,2) = 12.70	 x(2,3) = 3.70	 
x(3,0) = 10.09	 x(3,1) = 0.00	 x(3,2) = 19.09	 x(3,3) = 7.08	 
y(0,1,0) = 0.00	 y(1,0,0) = 1.00	 
y(0,2,0) = 0.70	 y(2,0,0) = 0.30	 
y(0,3,0) = 0.39	 y(3,0,0) = 0.61	 
y(1,2,0) = 0.54	 y(2,1,0) = 0.46	 
y(1,3,0) = 0.62	 y(3,1,0) = 0.38	 
y(2,3,0) = 0.00	 y(3,2,0) = 1.00	 
y(0,1,1) = 0.13	 y(1,0,1) = 0.87	 
y(0,2,1) = 0.00	 y(2,0,1) = 1.00	 
y(0,3,1) = 0.00	 y(3,0,1) = 1.00	 
y(1,2,1) = 0.42	 y(2,1,1) = 0.58	 
y(1,3,1) = 0.04	 y(3,1,1) = 0.96	 
y(2,3,1) = 0.00	 y(3,2,1) = 1.00	 
y(0,1,2) = 0.13	 y(1,0,2) = 0.87	 
y(0,2,2) = 0.14	 y(2,0,2) = 0.86	 
y(0,3,2) = 0.71	 y(3,0,2) = 0.29	 
y(1,2,2) = 0.12	 y(2,1,2) = 0.88	 
y(1,3,2) = 0.92	 y(3,1,2) = 0.08	 
y(2,3,2) = 0.85	 y(3,2,2) = 0.15	 
y(0,1,3) = 0.00	 y(1,0,3) = 1.00	 
y(0,2,3) = 0.14	 y(2,0,3) = 0.86	 
y(0,3,3) = 0.26	 y(3,0,3) = 0.74	 
y(1,2,3) = 0.37	 y(2,1,3) = 0.63	 
y(1,3,3) = 0.38	 y(3,1,3) = 0.62	 
y(2,3,3) = 0.26	 y(3,2,3) = 0.74	 
22.699716713880655 15.699716713880658 7
16.69971671388065 12.999999999997991 8
12.999999999997991 12.699716713880658 3
obj:  0.8106565572404358
solutions:  1
+ 0.014930399640772335x(1,2) + 0.023462056578356545x(3,2) + 0.010103277952402331x(0,2) 
[(0, 1), (1, 2), (3, 2), (0, 0), (3, 0), (2, 1), (2, 2), (0, 2)]
cliques:  1 mip: 121
C:  33.022744128553775
x(0,0) = 6.08	 x(0,1) = 26.02	 x(0,2) = 20.02	 x(0,3) = 17.73	 
x(1,0) = 5.08	 x(1,1) = 15.47	 x(1,2) = 23.57	 x(1,3) = 8.47	 
x(2,0) = 27.69	 x(2,1) = 20.69	 x(2,2) = 14.21	 x(2,3) = 5.21	 
x(3,0) = 10.00	 x(3,1) = 0.00	 x(3,2) = 19.00	 x(3,3) = 7.00	 
y(0,1,0) = 0.00	 y(1,0,0) = 1.00	 
y(0,2,0) = 0.65	 y(2,0,0) = 0.35	 
y(0,3,0) = 0.70	 y(3,0,0) = 0.30	 
y(1,2,0) = 0.74	 y(2,1,0) = 0.26	 
y(1,3,0) = 0.84	 y(3,1,0) = 0.16	 
y(2,3,0) = 0.00	 y(3,2,0) = 1.00	 
y(0,1,1) = 0.00	 y(1,0,1) = 1.00	 
y(0,2,1) = 0.06	 y(2,0,1) = 0.94	 
y(0,3,1) = 0.00	 y(3,0,1) = 1.00	 
y(1,2,1) = 0.58	 y(2,1,1) = 0.42	 
y(1,3,1) = 0.43	 y(3,1,1) = 0.57	 
y(2,3,1) = 0.00	 y(3,2,1) = 1.00	 
y(0,1,2) = 0.67	 y(1,0,2) = 0.33	 
y(0,2,2) = 0.15	 y(2,0,2) = 0.85	 
y(0,3,2) = 0.61	 y(3,0,2) = 0.39	 
y(1,2,2) = 0.27	 y(2,1,2) = 0.73	 
y(1,3,2) = 0.50	 y(3,1,2) = 0.50	 
y(2,3,2) = 0.92	 y(3,2,2) = 0.08	 
y(0,1,3) = 0.00	 y(1,0,3) = 1.00	 
y(0,2,3) = 0.17	 y(2,0,3) = 0.83	 
y(0,3,3) = 0.36	 y(3,0,3) = 0.64	 
y(1,2,3) = 0.18	 y(2,1,3) = 0.82	 
y(1,3,3) = 0.06	 y(3,1,3) = 0.94	 
y(2,3,3) = 0.19	 y(3,2,3) = 0.81	 
26.02274412855377 20.691261859300464 7
20.022744128553768 19.0 10
23.57107540173052 19.0 10
8.473154286998552 5.205707173251026 9
obj:  0.9700059414460249
solutions:  1
+ 0.0055248618784530384x(1,2) + 0.04419889502762431x(3,2) 
[(0, 1), (1, 2), (3, 2), (0, 0), (1, 3), (3, 0), (2, 1), (0, 2)]
cliques:  1 mip: 114
C:  34.0
x(0,0) = 4.94	 x(0,1) = 27.00	 x(0,2) = 21.00	 x(0,3) = 20.00	 
x(1,0) = 4.51	 x(1,1) = 12.51	 x(1,2) = 17.51	 x(1,3) = 5.51	 
x(2,0) = 29.81	 x(2,1) = 22.81	 x(2,2) = 15.42	 x(2,3) = 6.42	 
x(3,0) = 14.29	 x(3,1) = 3.64	 x(3,2) = 23.29	 x(3,3) = 10.64	 
y(0,1,0) = 0.02	 y(1,0,0) = 0.98	 
y(0,2,0) = 0.63	 y(2,0,0) = 0.37	 
y(0,3,0) = 0.95	 y(3,0,0) = 0.05	 
y(1,2,0) = 0.84	 y(2,1,0) = 0.16	 
y(1,3,0) = 0.55	 y(3,1,0) = 0.45	 
y(2,3,0) = 0.00	 y(3,2,0) = 1.00	 
y(0,1,1) = 0.00	 y(1,0,1) = 1.00	 
y(0,2,1) = 0.11	 y(2,0,1) = 0.89	 
y(0,3,1) = 0.00	 y(3,0,1) = 1.00	 
y(1,2,1) = 0.75	 y(2,1,1) = 0.25	 
y(1,3,1) = 0.00	 y(3,1,1) = 1.00	 
y(2,3,1) = 0.00	 y(3,2,1) = 1.00	 
y(0,1,2) = 0.34	 y(1,0,2) = 0.66	 
y(0,2,2) = 0.14	 y(2,0,2) = 0.86	 
y(0,3,2) = 0.41	 y(3,0,2) = 0.59	 
y(1,2,2) = 0.71	 y(2,1,2) = 0.29	 
y(1,3,2) = 0.91	 y(3,1,2) = 0.09	 
y(2,3,2) = 0.51	 y(3,2,2) = 0.49	 
y(0,1,3) = 0.00	 y(1,0,3) = 1.00	 
y(0,2,3) = 0.14	 y(2,0,3) = 0.86	 
y(0,3,3) = 0.43	 y(3,0,3) = 0.57	 
y(1,2,3) = 0.31	 y(2,1,3) = 0.69	 
y(1,3,3) = 0.48	 y(3,1,3) = 0.52	 
y(2,3,3) = 0.40	 y(3,2,3) = 0.60	 
4.93750187890784 4.5063291139240915 1
27.0 22.808957959779317 7
20.999999999999996 17.506329113924085 8
17.506329113924085 15.424976488798611 3
obj:  1.0419647771051184
erro
[(0, 1), (1, 2), (3, 2), (0, 0), (3, 0), (2, 1), (1, 0), (0, 2)]
cliques:  0 mip: 101
C:  34.01094557548095
x(0,0) = 1.54	 x(0,1) = 27.01	 x(0,2) = 20.19	 x(0,3) = 16.73	 
x(1,0) = 0.08	 x(1,1) = 8.09	 x(1,2) = 15.58	 x(1,3) = 1.08	 
x(2,0) = 27.01	 x(2,1) = 20.01	 x(2,2) = 13.40	 x(2,3) = 2.77	 
x(3,0) = 10.46	 x(3,1) = 0.46	 x(3,2) = 24.01	 x(3,3) = 7.46	 
y(0,1,0) = 0.09	 y(1,0,0) = 0.91	 
y(0,2,0) = 0.60	 y(2,0,0) = 0.40	 
y(0,3,0) = 0.95	 y(3,0,0) = 0.05	 
y(1,2,0) = 1.00	 y(2,1,0) = 0.00	 
y(1,3,0) = 0.75	 y(3,1,0) = 0.25	 
y(2,3,0) = 0.00	 y(3,2,0) = 1.00	 
y(0,1,1) = 0.00	 y(1,0,1) = 1.00	 
y(0,2,1) = 0.00	 y(2,0,1) = 1.00	 
y(0,3,1) = 0.00	 y(3,0,1) = 1.00	 
y(1,2,1) = 0.99	 y(2,1,1) = 0.01	 
y(1,3,1) = 0.00	 y(3,1,1) = 1.00	 
y(2,3,1) = 0.00	 y(3,2,1) = 1.00	 
y(0,1,2) = 0.56	 y(1,0,2) = 0.44	 
y(0,2,2) = 0.20	 y(2,0,2) = 0.80	 
y(0,3,2) = 0.42	 y(3,0,2) = 0.58	 
y(1,2,2) = 0.71	 y(2,1,2) = 0.29	 
y(1,3,2) = 1.00	 y(3,1,2) = 0.00	 
y(2,3,2) = 0.71	 y(3,2,2) = 0.29	 
y(0,1,3) = 0.00	 y(1,0,3) = 1.00	 
y(0,2,3) = 0.15	 y(2,0,3) = 0.85	 
y(0,3,3) = 0.41	 y(3,0,3) = 0.59	 
y(1,2,3) = 0.55	 y(2,1,3) = 0.45	 
y(1,3,3) = 0.52	 y(3,1,3) = 0.48	 
y(2,3,3) = 0.33	 y(3,2,3) = 0.67	 
27.010945575480953 20.010945575480957 7
20.193465526322473 15.581206596656308 8
15.581206596656308 13.402456623586646 3
obj:  0.9969944760845392
solutions:  1
+ 0.022759601706970122x(1,2) + 0.017780938833570414x(3,2) + 0.01066856330014225x(0,2) 
[(0, 1), (1, 2), (3, 2), (0, 0), (3, 0), (2, 1), (2, 2), (0, 2)]
cliques:  1 mip: 134
C:  35.0
x(0,0) = 7.50	 x(0,1) = 28.00	 x(0,2) = 20.27	 x(0,3) = 18.79	 
x(1,0) = 4.00	 x(1,1) = 12.00	 x(1,2) = 17.00	 x(1,3) = 5.00	 
x(2,0) = 25.00	 x(2,1) = 18.00	 x(2,2) = 14.63	 x(2,3) = 5.63	 
x(3,0) = 16.00	 x(3,1) = 1.14	 x(3,2) = 25.00	 x(3,3) = 8.14	 
y(0,1,0) = 0.00	 y(1,0,0) = 1.00	 
y(0,2,0) = 0.79	 y(2,0,0) = 0.21	 
y(0,3,0) = 0.93	 y(3,0,0) = 0.07	 
y(1,2,0) = 0.74	 y(2,1,0) = 0.26	 
y(1,3,0) = 0.62	 y(3,1,0) = 0.38	 
y(2,3,0) = 0.00	 y(3,2,0) = 1.00	 
y(0,1,1) = 0.00	 y(1,0,1) = 1.00	 
y(0,2,1) = 0.17	 y(2,0,1) = 0.83	 
y(0,3,1) = 0.00	 y(3,0,1) = 1.00	 
y(1,2,1) = 0.57	 y(2,1,1) = 0.43	 
y(1,3,1) = 0.16	 y(3,1,1) = 0.84	 
y(2,3,1) = 0.00	 y(3,2,1) = 1.00	 
y(0,1,2) = 0.54	 y(1,0,2) = 0.46	 
y(0,2,2) = 0.14	 y(2,0,2) = 0.86	 
y(0,3,2) = 0.83	 y(3,0,2) = 0.17	 
y(1,2,2) = 0.56	 y(2,1,2) = 0.44	 
y(1,3,2) = 1.00	 y(3,1,2) = 0.00	 
y(2,3,2) = 0.70	 y(3,2,2) = 0.30	 
y(0,1,3) = 0.00	 y(1,0,3) = 1.00	 
y(0,2,3) = 0.19	 y(2,0,3) = 0.81	 
y(0,3,3) = 0.38	 y(3,0,3) = 0.62	 
y(1,2,3) = 0.56	 y(2,1,3) = 0.44	 
y(1,3,3) = 0.77	 y(3,1,3) = 0.23	 
y(2,3,3) = 0.22	 y(3,2,3) = 0.78	 
20.274532881351846 17.00000000000165 8
17.00000000000165 14.629340165114204 3
obj:  1.045207449407486
erro
[(1, 2), (3, 2), (0, 0), (1, 3), (3, 0), (2, 3), (2, 2), (0, 2)]
cliques:  0 mip: 83
C:  35.0
x(0,0) = 7.63	 x(0,1) = 28.00	 x(0,2) = 18.79	 x(0,3) = 17.63	 
x(1,0) = 3.21	 x(1,1) = 11.21	 x(1,2) = 16.21	 x(1,3) = 4.21	 
x(2,0) = 24.36	 x(2,1) = 17.36	 x(2,2) = 14.36	 x(2,3) = 5.36	 
x(3,0) = 11.73	 x(3,1) = 0.52	 x(3,2) = 24.21	 x(3,3) = 7.52	 
y(0,1,0) = 0.10	 y(1,0,0) = 0.90	 
y(0,2,0) = 0.80	 y(2,0,0) = 0.20	 
y(0,3,0) = 0.71	 y(3,0,0) = 0.29	 
y(1,2,0) = 0.74	 y(2,1,0) = 0.26	 
y(1,3,0) = 0.72	 y(3,1,0) = 0.28	 
y(2,3,0) = 0.52	 y(3,2,0) = 0.48	 
y(0,1,1) = 0.00	 y(1,0,1) = 1.00	 
y(0,2,1) = 0.20	 y(2,0,1) = 0.80	 
y(0,3,1) = 0.00	 y(3,0,1) = 1.00	 
y(1,2,1) = 0.57	 y(2,1,1) = 0.43	 
y(1,3,1) = 0.14	 y(3,1,1) = 0.86	 
y(2,3,1) = 0.00	 y(3,2,1) = 1.00	 
y(0,1,2) = 0.29	 y(1,0,2) = 0.71	 
y(0,2,2) = 0.08	 y(2,0,2) = 0.92	 
y(0,3,2) = 0.97	 y(3,0,2) = 0.03	 
y(1,2,2) = 0.72	 y(2,1,2) = 0.28	 
y(1,3,2) = 1.00	 y(3,1,2) = 0.00	 
y(2,3,2) = 0.61	 y(3,2,2) = 0.39	 
y(0,1,3) = 0.00	 y(1,0,3) = 1.00	 
y(0,2,3) = 0.16	 y(2,0,3) = 0.84	 
y(0,3,3) = 0.36	 y(3,0,3) = 0.64	 
y(1,2,3) = 0.58	 y(2,1,3) = 0.42	 
y(1,3,3) = 0.26	 y(3,1,3) = 0.74	 
y(2,3,3) = 0.21	 y(3,2,3) = 0.79	 
18.786282966915337 16.214136061338063 8
16.214136061338063 14.359459237212858 3
obj:  0.9999999999999999
erro
[(1, 2), (3, 2), (0, 0), (1, 3), (3, 0), (2, 3), (2, 2), (0, 2)]
cliques:  0 mip: 104
C:  35.0
x(0,0) = 4.82	 x(0,1) = 28.00	 x(0,2) = 19.57	 x(0,3) = 18.57	 
x(1,0) = 2.98	 x(1,1) = 10.98	 x(1,2) = 17.33	 x(1,3) = 3.98	 
x(2,0) = 28.00	 x(2,1) = 21.00	 x(2,2) = 14.71	 x(2,3) = 5.62	 
x(3,0) = 14.82	 x(3,1) = 0.77	 x(3,2) = 24.85	 x(3,3) = 7.93	 
y(0,1,0) = 0.00	 y(1,0,0) = 1.00	 
y(0,2,0) = 0.88	 y(2,0,0) = 0.12	 
y(0,3,0) = 1.00	 y(3,0,0) = 0.00	 
y(1,2,0) = 0.92	 y(2,1,0) = 0.08	 
y(1,3,0) = 0.93	 y(3,1,0) = 0.07	 
y(2,3,0) = 0.00	 y(3,2,0) = 1.00	 
y(0,1,1) = 0.00	 y(1,0,1) = 1.00	 
y(0,2,1) = 0.00	 y(2,0,1) = 1.00	 
y(0,3,1) = 0.00	 y(3,0,1) = 1.00	 
y(1,2,1) = 0.83	 y(2,1,1) = 0.17	 
y(1,3,1) = 0.23	 y(3,1,1) = 0.77	 
y(2,3,1) = 0.00	 y(3,2,1) = 1.00	 
y(0,1,2) = 0.35	 y(1,0,2) = 0.65	 
y(0,2,2) = 0.10	 y(2,0,2) = 0.90	 
y(0,3,2) = 0.96	 y(3,0,2) = 0.04	 
y(1,2,2) = 0.70	 y(2,1,2) = 0.30	 
y(1,3,2) = 0.98	 y(3,1,2) = 0.02	 
y(2,3,2) = 0.58	 y(3,2,2) = 0.42	 
y(0,1,3) = 0.00	 y(1,0,3) = 1.00	 
y(0,2,3) = 0.19	 y(2,0,3) = 0.81	 
y(0,3,3) = 0.52	 y(3,0,3) = 0.48	 
y(1,2,3) = 0.61	 y(2,1,3) = 0.39	 
y(1,3,3) = 0.64	 y(3,1,3) = 0.36	 
y(2,3,3) = 0.21	 y(3,2,3) = 0.79	 
19.567299325983342 17.32777942061671 8
17.32777942061671 14.706261525793732 3
obj:  1.0393369479351073
erro
[(1, 2), (3, 2), (0, 0), (1, 3), (3, 0), (2, 3), (2, 2), (0, 2)]
cliques:  0 mip: 99
C:  35.0
x(0,0) = 4.68	 x(0,1) = 25.79	 x(0,2) = 15.68	 x(0,3) = 14.68	 
x(1,0) = 4.30	 x(1,1) = 12.30	 x(1,2) = 17.30	 x(1,3) = 5.30	 
x(2,0) = 26.12	 x(2,1) = 19.12	 x(2,2) = 14.31	 x(2,3) = 4.53	 
x(3,0) = 11.48	 x(3,1) = 0.81	 x(3,2) = 24.86	 x(3,3) = 8.48	 
y(0,1,0) = 0.03	 y(1,0,0) = 0.97	 
y(0,2,0) = 0.88	 y(2,0,0) = 0.12	 
y(0,3,0) = 0.84	 y(3,0,0) = 0.16	 
y(1,2,0) = 0.82	 y(2,1,0) = 0.18	 
y(1,3,0) = 0.77	 y(3,1,0) = 0.23	 
y(2,3,0) = 0.00	 y(3,2,0) = 1.00	 
y(0,1,1) = 0.00	 y(1,0,1) = 1.00	 
y(0,2,1) = 0.01	 y(2,0,1) = 0.99	 
y(0,3,1) = 0.00	 y(3,0,1) = 1.00	 
y(1,2,1) = 0.61	 y(2,1,1) = 0.39	 
y(1,3,1) = 0.19	 y(3,1,1) = 0.81	 
y(2,3,1) = 0.00	 y(3,2,1) = 1.00	 
y(0,1,2) = 0.39	 y(1,0,2) = 0.61	 
y(0,2,2) = 0.33	 y(2,0,2) = 0.67	 
y(0,3,2) = 0.96	 y(3,0,2) = 0.04	 
y(1,2,2) = 0.69	 y(2,1,2) = 0.31	 
y(1,3,2) = 0.98	 y(3,1,2) = 0.02	 
y(2,3,2) = 0.59	 y(3,2,2) = 0.41	 
y(0,1,3) = 0.00	 y(1,0,3) = 1.00	 
y(0,2,3) = 0.06	 y(2,0,3) = 0.94	 
y(0,3,3) = 0.03	 y(3,0,3) = 0.97	 
y(1,2,3) = 0.43	 y(2,1,3) = 0.57	 
y(1,3,3) = 0.43	 y(3,1,3) = 0.57	 
y(2,3,3) = 0.28	 y(3,2,3) = 0.72	 
4.684773785358521 4.299314275724058 1
25.78741428446493 19.12011524702446 7
15.68477378535852 14.311273025137218 3
17.299314275724054 14.311273025137218 3
5.299314275724059 4.527506003173536 9
obj:  1.0702024386861024
erro
[(0, 1), (1, 2), (0, 0), (3, 0), (2, 1), (2, 2), (1, 0), (0, 2)]
cliques:  0 mip: 77
C:  35.0
x(0,0) = 3.53	 x(0,1) = 28.00	 x(0,2) = 19.61	 x(0,3) = 13.53	 
x(1,0) = 3.57	 x(1,1) = 11.57	 x(1,2) = 16.57	 x(1,3) = 4.57	 
x(2,0) = 29.17	 x(2,1) = 22.17	 x(2,2) = 14.74	 x(2,3) = 3.27	 
x(3,0) = 13.19	 x(3,1) = 0.67	 x(3,2) = 24.76	 x(3,3) = 10.19	 
y(0,1,0) = 0.04	 y(1,0,0) = 0.96	 
y(0,2,0) = 0.87	 y(2,0,0) = 0.13	 
y(0,3,0) = 0.98	 y(3,0,0) = 0.02	 
y(1,2,0) = 0.95	 y(2,1,0) = 0.05	 
y(1,3,0) = 0.84	 y(3,1,0) = 0.16	 
y(2,3,0) = 0.00	 y(3,2,0) = 1.00	 
y(0,1,1) = 0.02	 y(1,0,1) = 0.98	 
y(0,2,1) = 0.04	 y(2,0,1) = 0.96	 
y(0,3,1) = 0.00	 y(3,0,1) = 1.00	 
y(1,2,1) = 0.80	 y(2,1,1) = 0.20	 
y(1,3,1) = 0.33	 y(3,1,1) = 0.67	 
y(2,3,1) = 0.00	 y(3,2,1) = 1.00	 
y(0,1,2) = 0.29	 y(1,0,2) = 0.71	 
y(0,2,2) = 0.32	 y(2,0,2) = 0.68	 
y(0,3,2) = 0.95	 y(3,0,2) = 0.05	 
y(1,2,2) = 0.72	 y(2,1,2) = 0.28	 
y(1,3,2) = 0.97	 y(3,1,2) = 0.03	 
y(2,3,2) = 0.62	 y(3,2,2) = 0.38	 
y(0,1,3) = 0.00	 y(1,0,3) = 1.00	 
y(0,2,3) = 0.06	 y(2,0,3) = 0.94	 
y(0,3,3) = 0.02	 y(3,0,3) = 0.98	 
y(1,2,3) = 0.34	 y(2,1,3) = 0.66	 
y(1,3,3) = 0.64	 y(3,1,3) = 0.36	 
y(2,3,3) = 0.40	 y(3,2,3) = 0.60	 
28.0 22.16610743062056 7
19.61289549987211 16.565101497930595 8
16.565101497930595 14.743670169440978 3
4.565101497930599 3.2743694326861132 9
obj:  1.0578608036458867
erro
[(0, 1), (1, 2), (3, 2), (0, 0), (3, 0), (2, 1), (1, 0), (0, 2)]
cliques:  0 mip: 106
C:  35.0
x(0,0) = 4.29	 x(0,1) = 28.00	 x(0,2) = 17.66	 x(0,3) = 14.29	 
x(1,0) = 4.85	 x(1,1) = 12.85	 x(1,2) = 17.85	 x(1,3) = 5.85	 
x(2,0) = 28.00	 x(2,1) = 21.00	 x(2,2) = 12.17	 x(2,3) = 0.00	 
x(3,0) = 13.65	 x(3,1) = 0.79	 x(3,2) = 23.66	 x(3,3) = 10.65	 
y(0,1,0) = 0.07	 y(1,0,0) = 0.93	 
y(0,2,0) = 0.56	 y(2,0,0) = 0.44	 
y(0,3,0) = 0.74	 y(3,0,0) = 0.26	 
y(1,2,0) = 0.94	 y(2,1,0) = 0.06	 
y(1,3,0) = 0.75	 y(3,1,0) = 0.25	 
y(2,3,0) = 0.22	 y(3,2,0) = 0.78	 
y(0,1,1) = 0.02	 y(1,0,1) = 0.98	 
y(0,2,1) = 0.00	 y(2,0,1) = 1.00	 
y(0,3,1) = 0.00	 y(3,0,1) = 1.00	 
y(1,2,1) = 0.78	 y(2,1,1) = 0.22	 
y(1,3,1) = 0.21	 y(3,1,1) = 0.79	 
y(2,3,1) = 0.00	 y(3,2,1) = 1.00	 
y(0,1,2) = 0.43	 y(1,0,2) = 0.57	 
y(0,2,2) = 0.33	 y(2,0,2) = 0.67	 
y(0,3,2) = 1.00	 y(3,0,2) = 0.00	 
y(1,2,2) = 0.61	 y(2,1,2) = 0.39	 
y(1,3,2) = 0.87	 y(3,1,2) = 0.13	 
y(2,3,2) = 0.61	 y(3,2,2) = 0.39	 
y(0,1,3) = 0.00	 y(1,0,3) = 1.00	 
y(0,2,3) = 0.17	 y(2,0,3) = 0.83	 
y(0,3,3) = 0.03	 y(3,0,3) = 0.97	 
y(1,2,3) = 0.55	 y(2,1,3) = 0.45	 
y(1,3,3) = 0.44	 y(3,1,3) = 0.56	 
y(2,3,3) = 0.68	 y(3,2,3) = 0.32	 
28.0 21.000000000000004 7
5.84677070168085 0.0 9
obj:  1.029390137921756
erro
[(0, 1), (1, 2), (3, 2), (0, 0), (3, 0), (2, 1), (1, 0), (0, 2)]
cliques:  0 mip: 0
iterações: 11 cortes cliques encontrados: 5 mip: 1039 objective:  35.0
Coin0506I Presolve 157 (-171) rows, 90 (-71) columns and 490 (-260) elements
Clp1000I sum of infeasibilities 1.79124e-08 - average 1.14092e-10, 0 fixed columns
Coin0506I Presolve 157 (0) rows, 90 (0) columns and 490 (0) elements
Clp0029I End of values pass after 90 iterations
Clp0000I Optimal - objective value 29
Clp0000I Optimal - objective value 29
Coin0511I After Postsolve, objective 29, infeasibilities - dual 0 (0), primal 0 (0)
Clp0000I Optimal - objective value 29
Clp0000I Optimal - objective value 29
Clp0000I Optimal - objective value 29
Coin0511I After Postsolve, objective 29, infeasibilities - dual 0 (0), primal 0 (0)
Clp0032I Optimal objective 29 - 0 iterations time 0.012, Presolve 0.00, Idiot 0.01
Coin3009W Conflict graph built in 0.001 seconds, density: 0.070%
